p cnf 1000 4260
-952 959 981 0
-885 -919 960 0
-871 885 -926 0
-869 -980 999 0
-867 -915 -980 0
-829 836 897 0
-826 -873 975 0
-823 909 969 0
-817 872 999 0
-816 -903 971 0
-813 959 -992 0
-812 -857 -951 0
-806 -830 -860 0
-803 -819 869 0
-802 -858 867 0
-802 -809 -974 0
-799 807 963 0
-798 -825 978 0
-797 832 888 0
-764 -806 -870 0
-761 841 -994 0
-759 -963 -966 0
-757 762 -877 0
-752 -792 884 0
-748 956 995 0
-738 -739 847 0
-737 840 -892 0
-736 -742 -809 0
-729 -873 995 0
-729 -828 -855 0
-729 805 923 0
-728 729 -772 0
-724 -762 -954 0
-722 893 -948 0
-717 -813 -898 0
-716 738 -882 0
-713 -947 964 0
-711 841 954 0
-708 764 -971 0
-702 930 -956 0
-699 -755 -954 0
-698 -710 974 0
-695 -806 -995 0
-695 -754 -786 0
-695 -713 943 0
-694 -861 865 0
-694 781 -948 0
-692 710 936 0
-692 933 948 0
-691 866 -918 0
-690 -851 -854 0
-690 728 766 0
-689 764 -791 0
-688 -892 911 0
-687 855 999 0
-685 -959 970 0
-684 -850 -906 0
-678 772 908 0
-672 793 829 0
-670 680 -827 0
-669 729 -894 0
-666 -762 948 0
-663 -765 -874 0
-662 -730 -853 0
-661 -863 -895 0
-660 977 993 0
-655 -696 -943 0
-653 -680 729 0
-651 -754 940 0
-650 -952 973 0
-650 860 941 0
-649 747 769 0
-646 664 789 0
-643 -669 832 0
-642 671 755 0
-641 -842 -947 0
-640 -924 -960 0
-636 657 -887 0
-636 860 -955 0
-633 734 -979 0
-629 805 816 0
-627 637 988 0
-626 -892 986 0
-620 670 -760 0
-618 -652 770 0
-618 667 706 0
-617 -788 988 0
-617 626 -756 0
-616 805 -983 0
-615 -862 896 0
-615 674 -699 0
-615 918 -919 0
-614 -683 789 0
-614 797 863 0
-613 -815 -959 0
-610 -680 -926 0
-610 -626 -903 0
-609 -728 745 0
-609 -637 742 0
-609 980 983 0
-608 -641 -932 0
-608 610 859 0
-606 -642 -962 0
-604 -741 949 0
-601 -782 846 0
-601 -641 -820 0
-601 727 997 0
-599 987 1000 0
-597 786 -898 0
-597 879 979 0
-596 618 -642 0
-596 767 -908 0
-595 722 -887 0
-594 754 -959 0
-591 -678 -912 0
-591 663 -985 0
-588 739 -940 0
-587 -860 892 0
-587 -623 981 0
-586 613 753 0
-585 -620 915 0
-585 719 811 0
-582 674 -736 0
-581 -644 -823 0
-581 831 957 0
-580 670 -674 0
-580 887 -892 0
-579 -649 963 0
-577 727 920 0
-577 761 1000 0
-575 -714 -807 0
-575 806 937 0
-573 658 -741 0
-573 807 -937 0
-572 -865 -986 0
-571 738 852 0
-570 724 942 0
-569 737 740 0
-568 -652 -696 0
-568 669 679 0
-568 719 -941 0
-568 741 907 0
-568 802 -936 0
-566 635 -975 0
-565 -761 -774 0
-565 -665 933 0
-564 -643 -870 0
-564 615 -635 0
-564 733 -894 0
-563 -581 940 0
-563 650 -715 0
-562 -720 -733 0
-562 702 -787 0
-561 -702 827 0
-561 698 856 0
-560 -632 -997 0
-559 671 711 0
-558 559 -768 0
-558 711 -848 0
-557 -924 949 0
-557 673 -784 0
-556 -752 812 0
-555 634 690 0
-554 574 860 0
-553 -704 -822 0
-553 -679 -689 0
-553 -671 859 0
-552 -859 -931 0
-552 574 -876 0
-551 -736 -806 0
-550 -793 -943 0
-550 -642 -752 0
-549 -701 845 0
-548 700 -838 0
-548 931 995 0
-546 -733 949 0
-546 -692 801 0
-545 619 691 0
-544 -599 788 0
-544 711 729 0
-543 -812 -915 0
-543 658 -873 0
-542 -722 867 0
-542 979 -981 0
-541 -583 588 0
-540 579 -683 0
-540 590 846 0
-540 796 -991 0
-540 963 -977 0
-537 -856 -998 0
-536 -748 888 0
-536 562 892 0
-535 662 -671 0
-534 -976 981 0
-534 -632 -881 0
-534 545 -754 0
-531 738 -746 0
-527 753 -897 0
-526 -922 928 0
-526 540 -612 0
-526 754 932 0
-525 -797 -989 0
-524 -549 663 0
-524 582 -838 0
-523 -573 -603 0
-523 587 654 0
-523 588 -735 0
-522 -927 -980 0
-522 -607 920 0
-521 -612 986 0
-521 531 -552 0
-520 -528 679 0
-520 800 817 0
-518 -672 -960 0
-518 707 802 0
-516 521 853 0
-516 572 -686 0
-513 -600 -780 0
-512 784 833 0
-510 -781 998 0
-510 -624 -669 0
-510 -539 798 0
-510 597 -901 0
-509 -767 880 0
-507 -519 -554 0
-507 536 -645 0
-506 525 869 0
-506 551 760 0
-505 -742 -990 0
-505 -680 873 0
-505 609 679 0
-505 886 969 0
-504 -849 -953 0
-504 -560 771 0
-504 505 790 0
-503 -761 923 0
-502 -574 -900 0
-500 -540 -947 0
-500 854 879 0
-499 -756 910 0
-499 -638 -659 0
-498 516 -609 0
-496 -528 -925 0
-496 514 895 0
-494 710 831 0
-491 -829 -992 0
-490 -898 -913 0
-490 -634 713 0
-490 -575 779 0
-490 538 604 0
-489 -604 -855 0
-489 655 961 0
-489 782 -933 0
-488 864 -991 0
-487 577 -794 0
-487 709 -848 0
-486 558 563 0
-486 846 -917 0
-485 862 -931 0
-484 813 987 0
-482 -687 780 0
-482 -483 990 0
-481 500 907 0
-480 -577 713 0
-480 595 916 0
-479 496 928 0
-479 551 848 0
-479 574 -797 0
-478 -634 917 0
-478 763 853 0
-477 -765 -868 0
-477 -699 -710 0
-476 538 -783 0
-474 -823 -825 0
-474 -730 768 0
-474 512 622 0
-473 497 -907 0
-473 583 606 0
-472 -882 955 0
-472 -789 810 0
-472 -566 904 0
-472 -561 839 0
-471 -652 -952 0
-471 -569 729 0
-469 -832 858 0
-468 -785 929 0
-468 -772 773 0
-468 -659 885 0
-466 -625 860 0
-466 -476 -878 0
-466 597 -965 0
-466 914 -961 0
-465 700 -993 0
-464 -884 -940 0
-464 -725 -813 0
-464 797 958 0
-463 -747 883 0
-463 -515 774 0
-462 510 780 0
-462 720 763 0
-462 762 -996 0
-460 605 -799 0
-459 -750 890 0
-458 545 681 0
-457 -707 -838 0
-457 585 724 0
-456 -708 -890 0
-456 528 -709 0
-454 -653 -994 0
-454 455 880 0
-454 462 -764 0
-454 709 -799 0
-453 -494 -695 0
-453 551 -922 0
-453 718 933 0
-453 719 911 0
-452 -704 864 0
-452 -609 -929 0
-452 -492 -508 0
-451 -810 -977 0
-451 -601 -933 0
-451 -517 533 0
-451 -516 -662 0
-451 -492 861 0
-451 468 586 0
-449 -687 736 0
-449 -649 -792 0
-448 -820 -993 0
-448 -530 -635 0
-447 -840 937 0
-447 -733 -864 0
-446 475 774 0
-446 479 -835 0
-446 530 -788 0
-445 -475 695 0
-445 477 -966 0
-445 902 -932 0
-444 808 -938 0
-443 -671 -804 0
-443 463 728 0
-442 -623 -664 0
-442 -622 807 0
-442 902 921 0
-441 797 -960 0
-441 904 908 0
-440 -907 -951 0
-440 665 958 0
-439 -522 -986 0
-439 492 -497 0
-439 560 -565 0
-438 -794 857 0
-438 557 607 0
-436 -938 968 0
-435 -543 -816 0
-435 857 -859 0
-434 -874 -880 0
-434 -812 -982 0
-434 -473 729 0
-433 -738 -822 0
-433 -710 860 0
-433 -606 -958 0
-433 683 838 0
-432 -793 -830 0
-432 -593 -774 0
-431 -870 -889 0
-430 -753 869 0
-430 -540 -992 0
-429 685 741 0
-428 -782 -822 0
-427 -502 659 0
-426 -490 674 0
-426 504 646 0
-426 661 -950 0
-425 554 792 0
-424 -779 -959 0
-424 -776 806 0
-424 -607 901 0
-423 588 -808 0
-423 663 714 0
-423 915 -936 0
-422 -687 771 0
-421 -760 971 0
-421 -597 911 0
-420 -809 -982 0
-420 824 903 0
-419 673 -968 0
-419 814 914 0
-417 588 633 0
-417 730 -848 0
-416 -785 860 0
-416 -632 -986 0
-416 429 596 0
-415 -593 853 0
-413 -620 -676 0
-412 -692 699 0
-412 -451 -499 0
-412 686 936 0
-411 -419 -556 0
-411 547 582 0
-410 -836 -998 0
-410 -718 -867 0
-410 -528 933 0
-410 447 579 0
-410 490 495 0
-410 730 -741 0
-409 728 -980 0
-408 -669 -799 0
-408 -470 900 0
-408 534 -594 0
-407 -879 908 0
-407 -755 832 0
-406 -605 -661 0
-406 -445 626 0
-406 489 635 0
-406 600 993 0
-406 748 -970 0
-405 460 508 0
-405 794 -860 0
-404 541 721 0
-403 -477 777 0
-403 -461 -902 0
-403 659 -673 0
-402 512 -826 0
-402 575 -583 0
-401 -736 -914 0
-401 -636 -955 0
-401 -539 569 0
-401 -516 879 0
-400 -410 525 0
-400 452 -782 0
-400 494 -707 0
-400 508 -707 0
-399 545 -912 0
-399 716 737 0
-399 820 923 0
-398 -480 -591 0
-397 502 -815 0
-397 529 766 0
-396 -509 912 0
-396 656 -845 0
-396 682 -954 0
-395 -599 998 0
-395 -489 -797 0
-395 671 838 0
-394 -424 948 0
-394 598 668 0
-393 -719 991 0
-393 -565 -833 0
-393 -534 -849 0
-393 -463 533 0
-393 -430 553 0
-393 546 -646 0
-393 596 611 0
-392 -718 -845 0
-392 493 -902 0
-392 556 -717 0
-391 751 858 0
-390 -507 680 0
-390 -505 -655 0
-390 560 607 0
-390 950 -953 0
-389 -457 -775 0
-389 406 -817 0
-389 425 -870 0
-388 480 -591 0
-387 484 703 0
-387 547 622 0
-386 420 -578 0
-386 942 993 0
-385 -540 556 0
-385 -454 735 0
-383 -496 -872 0
-383 511 882 0
-381 -593 -677 0
-381 554 852 0
-381 883 955 0
-380 -397 765 0
-380 567 -751 0
-379 -755 -807 0
-379 -577 -645 0
-378 -657 845 0
-378 -513 -916 0
-378 -428 -756 0
-378 385 -592 0
-377 601 -708 0
-376 -696 -819 0
-376 639 849 0
-376 905 965 0
-375 -821 953 0
-375 -675 -883 0
-375 -545 673 0
-375 -398 876 0
-373 -527 -999 0
-373 -506 709 0
-373 -496 674 0
-373 495 -778 0
-372 -735 -940 0
-372 -522 758 0
-371 -656 712 0
-371 377 -727 0
-371 415 741 0
-371 482 724 0
-371 583 -890 0
-370 -745 -839 0
-369 708 954 0
-369 854 -901 0
-367 -419 521 0
-366 -556 694 0
-366 -409 488 0
-365 -556 591 0
-365 -533 955 0
-364 -412 -568 0
-364 518 -591 0
-363 -543 -860 0
-362 -384 -633 0
-362 655 -683 0
-362 698 885 0
-361 -708 722 0
-361 -499 -781 0
-361 -417 -536 0
-361 580 746 0
-361 693 755 0
-360 -398 -971 0
-360 464 693 0
-360 725 960 0
-359 -371 -450 0
-359 392 -628 0
-359 612 -671 0
-358 -608 838 0
-358 582 993 0
-357 577 692 0
-356 -423 770 0
-356 381 664 0
-356 443 -771 0
-355 558 974 0
-355 575 -938 0
-354 497 -798 0
-354 752 922 0
-353 -792 -981 0
-353 -760 768 0
-353 -377 401 0
-352 -418 -431 0
-352 356 -381 0
-351 -736 881 0
-351 515 591 0
-350 -410 860 0
-350 -366 -700 0
-350 370 -420 0
-350 387 581 0
-350 520 -827 0
-349 -531 958 0
-349 -454 953 0
-349 -367 -898 0
-349 456 -487 0
-349 828 -986 0
-348 -652 -975 0
-348 -393 -612 0
-348 423 610 0
-348 475 790 0
-347 -755 -869 0
-347 -666 -822 0
-347 372 -725 0
-346 -490 732 0
-345 -626 821 0
-345 -475 761 0
-345 -352 360 0
-345 353 444 0
-345 660 698 0
-344 -768 913 0
-344 495 729 0
-344 557 941 0
-344 617 -869 0
-343 591 -621 0
-343 664 767 0
-342 414 -516 0
-342 746 -973 0
-341 344 886 0
-341 391 998 0
-341 911 961 0
-340 -773 793 0
-340 459 699 0
-339 -735 931 0
-339 390 -718 0
-339 395 410 0
-338 -750 768 0
-338 370 541 0
-338 487 753 0
-337 -804 -920 0
-337 -792 990 0
-337 -375 602 0
-337 350 514 0
-337 496 908 0
-337 691 -866 0
-336 -590 623 0
-336 708 851 0
-335 -664 -796 0
-335 -505 -554 0
-335 -413 821 0
-335 605 -811 0
-335 632 -761 0
-335 765 -937 0
-334 -416 -746 0
-334 407 -467 0
-334 529 586 0
-333 -662 -702 0
-333 443 954 0
-333 533 612 0
-332 382 874 0
-332 476 -579 0
-332 528 980 0
-332 684 -859 0
-331 -688 905 0
-331 -579 -941 0
-331 -348 996 0
-331 632 971 0
-330 -706 843 0
-330 -502 -720 0
-330 555 -995 0
-329 -504 814 0
-329 423 -761 0
-329 636 951 0
-329 665 726 0
-328 761 -851 0
-327 -497 859 0
-327 764 -905 0
-326 -468 925 0
-326 -461 873 0
-326 954 -963 0
-325 -880 991 0
-325 -578 -948 0
-324 -377 972 0
-324 -359 -701 0
-324 800 811 0
-324 874 -996 0
-323 506 -749 0
-322 -846 -872 0
-322 -700 724 0
-322 -561 -729 0
-321 -379 828 0
-320 578 916 0
-320 698 -930 0
-319 -679 921 0
-318 -436 -624 0
-318 348 487 0
-317 350 -869 0
-317 632 -720 0
-317 663 -795 0
-316 -383 737 0
-316 395 595 0
-315 -568 -844 0
-315 357 -674 0
-314 -536 739 0
-314 -367 -727 0
-314 558 -861 0
-313 -778 -839 0
-313 367 -764 0
-313 821 889 0
-312 362 -595 0
-312 573 750 0
-312 656 -787 0
-312 867 912 0
-311 -391 -818 0
-311 447 634 0
-311 636 916 0
-310 -656 -662 0
-310 -454 -828 0
-310 -425 849 0
-309 -415 -519 0
-309 -317 695 0
-309 -316 -738 0
-309 416 -914 0
-309 822 920 0
-309 927 -932 0
-308 -346 -632 0
-308 745 -805 0
-307 -632 785 0
-307 -421 620 0
-307 316 591 0
-307 330 968 0
-307 548 941 0
-306 -680 -880 0
-306 -362 740 0
-306 358 -883 0
-306 711 -768 0
-306 905 -969 0
-305 403 -723 0
-304 -802 883 0
-304 -529 -840 0
-303 480 589 0
-303 556 868 0
-302 -672 -916 0
-302 -568 697 0
-302 -475 984 0
-302 406 581 0
-302 898 980 0
-301 -571 -644 0
-301 374 502 0
-300 -693 -931 0
-300 364 -848 0
-300 645 -789 0
-299 -328 428 0
-299 405 -954 0
-298 -631 -641 0
-298 -528 -841 0
-298 -506 -553 0
-298 -301 -558 0
-297 -467 -520 0
-297 384 712 0
-297 568 -954 0
-296 -525 906 0
-296 430 827 0
-296 543 -831 0
-295 -480 -851 0
-295 -362 -741 0
-294 -780 869 0
-294 520 868 0
-293 317 -854 0
-293 594 -709 0
-292 -934 -937 0
-292 416 -576 0
-291 -434 887 0
-291 -415 969 0
-291 531 951 0
-290 445 -837 0
-290 597 -991 0
-289 -558 562 0
-289 -466 -712 0
-288 -686 -918 0
-288 -421 993 0
-288 510 746 0
-287 497 -885 0
-286 -630 905 0
-286 -549 776 0
-286 393 646 0
-286 570 774 0
-286 703 795 0
-285 295 -546 0
-285 515 676 0
-285 582 796 0
-285 728 -969 0
-284 -485 968 0
-283 -578 941 0
-283 -371 -625 0
-283 341 -913 0
-283 451 675 0
-282 -880 -975 0
-282 -558 -939 0
-282 288 -827 0
-282 533 -552 0
-281 445 667 0
-280 439 496 0
-279 -827 909 0
-279 317 -913 0
-279 583 -593 0
-279 682 940 0
-278 -455 -911 0
-278 -341 981 0
-278 580 -946 0
-277 -789 -859 0
-277 -556 873 0
-277 658 906 0
-276 -431 -538 0
-276 -409 -735 0
-276 -315 -849 0
-276 -312 -830 0
-275 -724 743 0
-275 -584 -834 0
-275 -328 -943 0
-274 -568 772 0
-274 -306 -612 0
-274 561 -734 0
-273 -446 -502 0
-273 -303 -981 0
-273 443 620 0
-272 -458 -613 0
-272 369 963 0
-271 283 -357 0
-271 312 729 0
-271 547 969 0
-271 578 757 0
-270 -369 -425 0
-270 -351 920 0
-270 508 915 0
-270 528 605 0
-269 338 -602 0
-269 638 -811 0
-269 926 953 0
-268 -508 976 0
-268 -322 -547 0
-268 345 -434 0
-268 381 -438 0
-268 394 568 0
-268 608 947 0
-267 -771 -777 0
-267 -691 935 0
-267 -515 876 0
-267 -513 -859 0
-267 -321 -443 0
-266 -711 849 0
-266 -444 678 0
-266 -442 -531 0
-266 -427 819 0
-266 586 621 0
-266 621 -963 0
-265 -514 -769 0
-265 -373 -463 0
-265 -342 -896 0
-265 476 694 0
-264 -675 854 0
-264 -332 381 0
-263 -480 -619 0
-263 -310 -424 0
-263 -265 507 0
-263 495 -839 0
-262 -397 756 0
-262 308 482 0
-261 -673 -731 0
-261 -600 -935 0
-261 -514 949 0
-261 -397 -625 0
-261 466 -630 0
-261 515 -988 0
-260 -315 -833 0
-260 340 980 0
-260 584 910 0
-259 -549 -645 0
-259 -464 -702 0
-259 310 -888 0
-258 283 826 0
-258 351 -433 0
-258 544 687 0
-257 -750 816 0
-257 -603 -897 0
-257 -443 -1000 0
-257 266 -935 0
-257 318 -741 0
-257 906 -938 0
-256 -547 -910 0
-256 -367 -978 0
-256 -266 879 0
-256 271 922 0
-256 436 -597 0
-255 -299 -613 0
-255 312 -888 0
-255 334 -634 0
-255 665 829 0
-254 -450 -529 0
-254 276 954 0
-254 888 -953 0
-253 -910 -1000 0
-253 331 -868 0
-253 609 -772 0
-252 333 480 0
-252 458 -605 0
-251 -367 671 0
-251 -319 -752 0
-250 -677 -833 0
-250 -614 980 0
-250 -333 877 0
-250 -281 296 0
-249 -808 900 0
-249 -657 869 0
-249 -400 694 0
-249 373 -781 0
-248 -643 781 0
-248 -262 272 0
-248 346 -965 0
-248 527 745 0
-247 -686 -857 0
-247 -411 859 0
-247 375 874 0
-247 410 670 0
-247 549 687 0
-246 -553 731 0
-246 -382 -526 0
-246 330 822 0
-246 346 -841 0
-246 410 -909 0
-246 414 566 0
-245 389 -616 0
-245 412 553 0
-245 452 827 0
-245 464 516 0
-244 -405 -502 0
-244 248 -723 0
-244 421 -601 0
-244 684 920 0
-244 815 -981 0
-243 -511 -800 0
-243 -422 -659 0
-243 -275 642 0
-243 -248 603 0
-243 597 710 0
-243 741 773 0
-242 461 -814 0
-241 -319 596 0
-241 -315 557 0
-241 -261 -399 0
-241 458 -782 0
-240 -642 -850 0
-240 -509 928 0
-240 283 -619 0
-239 -777 896 0
-239 -381 457 0
-239 241 586 0
-239 268 -330 0
-239 327 579 0
-238 -747 833 0
-238 -654 -798 0
-238 -515 718 0
-238 -382 -862 0
-238 262 552 0
-238 687 759 0
-237 -311 -574 0
-237 595 -970 0
-237 635 864 0
-236 -803 -872 0
-236 -438 624 0
-236 418 -588 0
-236 634 -759 0
-236 657 -945 0
-235 440 -571 0
-235 820 -911 0
-234 -584 -860 0
-234 -495 996 0
-234 -354 -855 0
-234 -294 750 0
-233 -437 737 0
-233 470 568 0
-232 -233 238 0
-232 356 -587 0
-231 375 -388 0
-231 378 -928 0
-230 -585 -940 0
-230 -428 -817 0
-230 -360 -912 0
-230 299 -468 0
-230 302 -496 0
-230 432 725 0
-230 483 834 0
-229 -650 -729 0
-229 -583 -916 0
-229 -557 -681 0
-229 546 -888 0
-229 585 666 0
-229 662 -851 0
-228 -472 727 0
-228 -367 -611 0
-228 -235 -339 0
-228 278 497 0
-228 513 -711 0
-228 688 -871 0
-227 -597 -972 0
-227 -511 -691 0
-227 -326 -660 0
-227 249 342 0
-227 374 811 0
-227 406 878 0
-226 -406 912 0
-226 233 861 0
-226 489 -665 0
-226 550 -623 0
-225 783 807 0
-224 258 557 0
-224 310 877 0
-223 -473 788 0
-223 -256 865 0
-223 234 -606 0
-223 587 -915 0
-223 597 -784 0
-222 -654 -892 0
-222 -625 -986 0
-222 362 377 0
-222 496 -763 0
-222 635 643 0
-222 643 -700 0
-221 -273 901 0
-221 294 -363 0
-221 323 -954 0
-221 473 -976 0
-220 -714 -839 0
-220 -669 822 0
-220 -295 -589 0
-220 326 -550 0
-220 381 -384 0
-220 835 961 0
-219 -643 -709 0
-219 -419 -732 0
-219 -418 -627 0
-219 507 -710 0
-218 -615 -955 0
-218 -342 815 0
-218 329 459 0
-218 336 -689 0
-218 484 660 0
-217 -460 -950 0
-217 -276 926 0
-217 -223 409 0
-216 -599 -796 0
-216 594 -610 0
-216 796 -937 0
-215 -521 542 0
-215 -251 509 0
-215 -226 -899 0
-215 271 888 0
-214 -823 -876 0
-214 -681 823 0
-214 -306 741 0
-214 -218 -918 0
-214 540 825 0
-213 -524 -836 0
-213 -507 537 0
-213 -348 972 0
-213 -344 424 0
-213 214 -372 0
-213 341 -594 0
-212 -378 -911 0
-212 344 -626 0
-212 384 -778 0
-211 -633 660 0
-211 -521 -943 0
-211 224 -781 0
-211 288 679 0
-211 439 -716 0
-210 -233 -879 0
-210 631 938 0
-209 -931 -949 0
-209 414 569 0
-208 -411 -879 0
-208 -322 921 0
-208 345 786 0
-207 -318 -804 0
-207 -264 -773 0
-207 310 -336 0
-207 799 925 0
-206 -215 -728 0
-206 820 898 0
-205 -610 -792 0
-205 598 962 0
-204 312 719 0
-204 474 -881 0
-204 651 -735 0
-204 799 -817 0
-203 -479 -775 0
-203 -285 959 0
-203 450 797 0
-202 -732 781 0
-202 -515 -613 0
-202 -326 809 0
-202 349 -572 0
-201 -384 683 0
-201 -204 781 0
-201 343 739 0
-201 410 785 0
-200 -826 961 0
-200 -353 -968 0
-200 854 973 0
-199 229 707 0
-199 230 665 0
-198 -248 -501 0
-198 251 332 0
-198 261 363 0
-198 344 900 0
-198 366 422 0
-198 652 -882 0
-198 724 -860 0
-197 -604 -920 0
-197 -384 -1000 0
-197 -334 481 0
-197 -312 -860 0
-197 307 -690 0
-197 325 731 0
-196 -506 -859 0
-196 -397 479 0
-196 -311 644 0
-196 549 660 0
-195 -675 -869 0
-195 -557 -803 0
-195 343 531 0
-195 617 -644 0
-195 627 849 0
-194 -667 800 0
-194 207 604 0
-194 228 -869 0
-194 509 653 0
-194 650 708 0
-194 857 -906 0
-193 -885 -897 0
-193 -738 -921 0
-193 -195 -620 0
-193 218 873 0
-193 602 -941 0
-193 676 -700 0
-192 -589 -670 0
-192 -283 417 0
-192 483 -612 0
-191 -437 696 0
-191 -391 548 0
-191 342 840 0
-191 400 -402 0
-191 475 953 0
-191 625 721 0
-191 730 -886 0
-191 818 828 0
-190 -232 980 0
-190 212 248 0
-190 283 -585 0
-190 419 -422 0
-190 543 -859 0
-189 -488 -658 0
-189 -441 -746 0
-189 402 701 0
-189 604 706 0
-189 613 -747 0
-188 -607 943 0
-188 -430 571 0
-188 199 610 0
-188 475 -855 0
-186 -604 -726 0
-186 -374 848 0
-186 191 -479 0
-186 284 586 0
-186 680 -891 0
-185 -912 992 0
-185 -634 966 0
-185 -308 -680 0
-185 474 -763 0
-185 553 -939 0
-184 -631 722 0
-184 -612 -772 0
-184 -591 -645 0
-184 -281 816 0
-184 433 -886 0
-184 667 691 0
-183 240 659 0
-183 263 642 0
-183 561 -592 0
-182 -234 -496 0
-182 712 795 0
-181 352 -829 0
-181 415 423 0
-181 626 -971 0
-181 846 -979 0
-180 -370 -721 0
-180 -237 -889 0
-180 281 780 0
-180 393 705 0
-180 639 -959 0
-179 -625 849 0
-179 -189 -525 0
-179 474 731 0
-179 764 -956 0
-178 -604 -766 0
-178 -309 922 0
-178 -261 -944 0
-178 507 -921 0
-177 -469 956 0
-177 -414 -479 0
-177 -213 -684 0
-176 -447 728 0
-176 328 472 0
-176 452 -684 0
-176 517 764 0
-176 558 -992 0
-175 -246 -535 0
-175 223 329 0
-175 326 -372 0
-174 -234 992 0
-174 283 -363 0
-174 482 -883 0
-174 548 976 0
-174 779 964 0
-173 -478 -516 0
-173 415 424 0
-173 476 -770 0
-173 804 812 0
-172 -539 -753 0
-172 -538 -651 0
-172 -390 506 0
-172 267 -824 0
-172 307 489 0
-171 -386 918 0
-171 -274 -746 0
-171 536 680 0
-170 -181 661 0
-170 335 -444 0
-170 488 977 0
-170 602 951 0
-169 -743 -926 0
-169 -413 457 0
-169 228 -854 0
-169 469 -722 0
-169 561 905 0
-169 846 -971 0
-168 -818 -859 0
-168 -539 -654 0
-168 -364 643 0
-168 -259 286 0
-168 645 -822 0
-167 454 -970 0
-167 588 -668 0
-166 -225 -586 0
-166 -187 -414 0
-166 199 771 0
-166 204 -234 0
-166 589 854 0
-165 -352 -409 0
-165 -306 -700 0
-165 -234 553 0
-165 381 -744 0
-165 507 -842 0
-165 534 701 0
-164 -873 -952 0
-164 -605 688 0
-164 -458 -857 0
-164 317 -515 0
-164 350 -937 0
-163 -561 945 0
-163 264 783 0
-163 453 -948 0
-162 -654 -807 0
-162 -483 -718 0
-162 659 708 0
-161 252 -865 0
-161 311 -687 0
-161 602 -737 0
-161 821 -968 0
-160 -744 802 0
-160 -722 -896 0
-160 -448 -529 0
-160 324 612 0
-160 350 825 0
-160 390 657 0
-160 593 645 0
-159 -517 -832 0
-159 -338 -795 0
-159 -177 703 0
-159 409 -833 0
-158 -548 -776 0
-158 -460 823 0
-158 -373 -797 0
-158 -258 -720 0
-158 351 -944 0
-158 414 -514 0
-157 -866 981 0
-157 191 287 0
-157 277 -509 0
-157 293 -995 0
-157 311 952 0
-157 474 -690 0
-156 -715 853 0
-156 -459 985 0
-156 -185 -915 0
-156 -165 217 0
-156 249 -911 0
-156 532 -744 0
-156 626 -905 0
-155 -617 884 0
-155 -555 964 0
-155 -309 -502 0
-155 -172 -696 0
-155 432 -907 0
-155 616 -852 0
-154 -543 -548 0
-154 -428 871 0
-154 -284 -334 0
-154 158 -892 0
-154 210 964 0
-154 530 778 0
-153 -921 -936 0
-153 -647 835 0
-153 -280 962 0
-153 -273 892 0
-153 175 -372 0
-153 792 948 0
-152 -556 -754 0
-152 -524 -752 0
-152 -310 -814 0
-152 303 -781 0
-151 -913 984 0
-151 -587 -685 0
-151 -530 981 0
-151 -178 592 0
-150 -818 945 0
-150 -745 -970 0
-150 -624 -754 0
-150 -562 -684 0
-150 383 -730 0
-150 629 699 0
-149 -703 973 0
-149 -337 -376 0
-149 179 358 0
-149 481 879 0
-149 522 607 0
-149 636 638 0
-148 -536 -914 0
-148 -486 -826 0
-148 350 -691 0
-148 565 970 0
-148 776 920 0
-147 -685 893 0
-147 161 -186 0
-147 340 375 0
-147 558 650 0
-146 205 -424 0
-146 264 619 0
-146 653 678 0
-145 -531 -769 0
-145 680 721 0
-144 -716 -793 0
-144 -666 -857 0
-144 -598 -864 0
-144 -466 486 0
-144 164 -682 0
-144 209 789 0
-143 -645 -783 0
-143 -431 -993 0
-143 -210 611 0
-143 381 -547 0
-143 645 -972 0
-142 -297 -301 0
-142 -290 951 0
-142 -281 907 0
-142 -181 -376 0
-142 436 596 0
-142 561 -831 0
-141 -383 -795 0
-141 -334 -548 0
-141 -314 764 0
-141 -291 -741 0
-141 218 -375 0
-140 -639 864 0
-140 -617 -705 0
-140 -567 974 0
-140 -260 -338 0
-140 -141 -703 0
-140 415 713 0
-140 539 994 0
-139 -561 -664 0
-139 -408 504 0
-139 155 211 0
-139 215 505 0
-139 290 -707 0
-139 783 -963 0
-138 -262 -724 0
-138 -146 443 0
-138 180 -460 0
-138 182 577 0
-138 303 -650 0
-138 384 -772 0
-137 219 -347 0
-137 310 -934 0
-137 313 712 0
-137 470 634 0
-136 -482 -709 0
-136 -366 899 0
-136 -153 990 0
-135 -822 -898 0
-135 -779 -899 0
-135 -730 -917 0
-135 -663 722 0
-135 -518 856 0
-135 -289 464 0
-135 186 480 0
-135 692 -965 0
-134 -874 -954 0
-134 -549 698 0
-134 -367 -371 0
-134 359 897 0
-134 501 -807 0
-133 -577 614 0
-133 169 218 0
-133 445 -821 0
-133 532 -901 0
-132 -394 505 0
-132 -263 550 0
-132 -189 -801 0
-132 477 -738 0
-131 -234 -885 0
-131 -226 614 0
-131 206 546 0
-131 525 -533 0
-130 -556 730 0
-130 -386 882 0
-130 -232 296 0
-130 177 -443 0
-130 347 641 0
-129 -557 651 0
-129 -336 718 0
-129 568 -581 0
-128 -362 886 0
-128 384 493 0
-128 452 -512 0
-128 614 730 0
-127 -681 -913 0
-127 -272 -801 0
-127 -210 -470 0
-127 285 -941 0
-127 451 524 0
-126 -666 726 0
-126 -467 -998 0
-126 -377 -666 0
-126 514 -966 0
-125 -551 989 0
-125 133 891 0
-125 421 617 0
-125 426 666 0
-125 736 -748 0
-124 -395 723 0
-124 459 599 0
-124 712 724 0
-123 -439 -763 0
-123 351 521 0
-122 459 -773 0
-122 510 931 0
-121 -415 -497 0
-121 126 -917 0
-121 330 -572 0
-121 403 405 0
-121 645 -835 0
-120 -293 750 0
-120 158 843 0
-120 368 471 0
-120 393 -611 0
-120 436 -667 0
-120 458 -577 0
-120 688 -904 0
-119 -504 -697 0
-119 -338 -494 0
-119 140 293 0
-119 355 -455 0
-119 388 -427 0
-119 788 908 0
-118 -587 945 0
-118 -307 -589 0
-118 -185 -301 0
-118 235 -378 0
-118 344 -547 0
-118 746 940 0
-117 -700 -710 0
-117 -255 -829 0
-117 -119 -242 0
-117 126 980 0
-116 -272 -573 0
-116 -166 -986 0
-116 506 -740 0
-116 544 -558 0
-115 -403 797 0
-115 -125 247 0
-115 151 -494 0
-115 156 -825 0
-115 279 -925 0
-115 389 -983 0
-115 646 741 0
-115 783 -855 0
-114 -686 701 0
-114 -389 -622 0
-114 -346 -363 0
-114 -178 -565 0
-114 202 -312 0
-114 632 -751 0
-114 765 -850 0
-113 -729 -959 0
-113 -655 -846 0
-113 -493 -618 0
-113 125 -416 0
-112 -413 -698 0
-112 -304 -843 0
-112 -230 -311 0
-112 640 921 0
-112 679 -913 0
-111 -894 977 0
-111 -308 -755 0
-111 139 -611 0
-111 315 -514 0
-111 375 399 0
-111 578 -608 0
-111 746 768 0
-110 -665 931 0
-110 -352 879 0
-110 -120 479 0
-110 186 203 0
-110 311 -814 0
-110 445 -949 0
-109 -635 -953 0
-109 -523 806 0
-109 -490 -902 0
-109 -142 -409 0
-109 -135 409 0
-109 -115 538 0
-109 724 932 0
-108 -669 -777 0
-108 -623 836 0
-108 -620 741 0
-108 322 468 0
-108 379 792 0
-107 -388 969 0
-107 -252 968 0
-107 421 -769 0
-106 -455 -720 0
-106 -143 697 0
-106 423 -892 0
-106 446 -762 0
-105 -737 804 0
-105 -612 669 0
-105 -578 -935 0
-105 -422 894 0
-105 -193 -513 0
-105 196 803 0
-105 202 -379 0
-105 215 -273 0
-104 -589 868 0
-104 -566 753 0
-104 194 869 0
-104 204 -418 0
-104 526 -727 0
-103 -785 -912 0
-103 115 884 0
-103 125 257 0
-103 262 -922 0
-103 391 -421 0
-103 523 541 0
-103 603 -839 0
-102 -611 986 0
-102 -235 -538 0
-102 107 -368 0
-102 564 -741 0
-101 -415 504 0
-101 -289 759 0
-101 -218 -427 0
-101 -104 185 0
-101 103 -136 0
-101 165 -708 0
-101 732 -923 0
-100 -756 -860 0
-100 -643 -696 0
-100 148 -493 0
-100 262 -625 0
-100 745 755 0
-99 -562 772 0
-99 198 797 0
-99 894 -952 0
-98 -352 -908 0
-98 -258 -610 0
-98 153 -498 0
-98 227 876 0
-98 292 -912 0
-98 390 -580 0
-98 503 -504 0
-98 609 -943 0
-97 -735 891 0
-97 -369 693 0
-97 -284 762 0
-97 -186 -712 0
-97 249 930 0
-97 716 717 0
-96 -244 -442 0
-96 -106 -588 0
-96 882 -907 0
-95 -390 706 0
-95 -356 422 0
-95 -186 -826 0
-95 340 -440 0
-95 645 -934 0
-94 -657 -883 0
-94 -500 822 0
-94 -206 -841 0
-94 -176 590 0
-94 -171 -346 0
-94 100 109 0
-94 267 986 0
-94 319 -900 0
-94 708 -888 0
-94 948 972 0
-93 -288 540 0
-93 200 -567 0
-93 565 735 0
-93 587 -726 0
-92 -638 944 0
-92 -281 -377 0
-92 441 981 0
-92 519 924 0
-92 932 -988 0
-91 -464 -679 0
-91 -160 914 0
-91 205 -429 0
-91 614 -664 0
-90 -891 928 0
-90 -838 -989 0
-90 101 889 0
-90 175 178 0
-90 590 898 0
-90 846 851 0
-89 -382 851 0
-89 -370 773 0
-89 -294 413 0
-89 -267 -293 0
-89 -257 -438 0
-89 203 -984 0
-89 319 521 0
-89 890 891 0
-88 -579 848 0
-88 -519 818 0
-88 -332 556 0
-88 -273 -285 0
-88 -146 -198 0
-88 103 408 0
-88 190 422 0
-88 572 618 0
-87 -703 -819 0
-87 173 -700 0
-87 327 769 0
-87 363 -896 0
-86 -638 686 0
-86 -627 -693 0
-86 -410 432 0
-86 -219 -559 0
-86 104 -218 0
-85 -441 650 0
-85 -439 -780 0
-85 -346 -934 0
-85 -125 222 0
-85 110 843 0
-85 134 207 0
-85 364 938 0
-84 -849 -913 0
-84 -161 220 0
-84 329 504 0
-84 830 831 0
-84 850 916 0
-84 866 -973 0
-83 -172 600 0
-82 -424 -960 0
-82 -264 885 0
-82 182 -502 0
-82 188 -810 0
-82 388 -600 0
-82 616 -849 0
-82 923 -980 0
-81 -541 -887 0
-81 -538 685 0
-81 -387 -564 0
-81 156 -580 0
-81 185 618 0
-81 212 -937 0
-81 306 -802 0
-80 -481 662 0
-80 -180 -997 0
-80 262 293 0
-79 -91 -584 0
-79 147 612 0
-79 282 -402 0
-79 569 -783 0
-78 -500 -851 0
-78 -368 -796 0
-78 -103 -175 0
-78 127 -424 0
-78 342 -942 0
-78 427 -683 0
-78 700 -761 0
-78 744 924 0
-77 -240 -584 0
-77 -229 376 0
-77 464 827 0
-77 514 -554 0
-77 601 -813 0
-76 -525 798 0
-76 -386 -543 0
-76 -205 -323 0
-76 89 937 0
-76 108 765 0
-76 150 788 0
-76 547 -925 0
-76 694 -842 0
-75 -429 -721 0
-75 -346 614 0
-75 -320 -428 0
-74 -727 -754 0
-74 -546 -714 0
-74 -459 478 0
-74 604 620 0
-74 665 915 0
-74 672 -975 0
-73 -608 -943 0
-73 -297 -926 0
-73 -255 692 0
-73 -160 -338 0
-73 305 -711 0
-73 394 734 0
-73 824 857 0
-72 -840 -924 0
-72 -742 -829 0
-72 -639 675 0
-72 -103 -414 0
-71 -674 -873 0
-71 -347 -889 0
-71 -221 -750 0
-71 236 -398 0
-71 490 -810 0
-70 -208 314 0
-70 -164 -363 0
-70 -75 -790 0
-70 370 809 0
-70 802 992 0
-69 -730 791 0
-69 -364 -555 0
-69 -278 781 0
-69 -145 496 0
-69 -110 410 0
-69 395 -898 0
-68 -628 856 0
-68 -413 667 0
-68 -342 597 0
-68 -97 -601 0
-68 138 740 0
-68 273 -929 0
-68 374 616 0
-68 383 -489 0
-67 -678 880 0
-67 -471 982 0
-67 98 -769 0
-67 132 -884 0
-67 265 671 0
-67 815 856 0
-66 -571 959 0
-66 -149 -654 0
-66 -148 -834 0
-66 187 -587 0
-66 280 -394 0
-66 686 980 0
-65 -455 581 0
-65 -384 978 0
-65 -313 -783 0
-65 -204 888 0
-65 -94 272 0
-64 -451 674 0
-64 -345 -798 0
-64 327 -575 0
-64 820 826 0
-63 -465 -721 0
-63 -359 479 0
-63 122 451 0
-63 165 -227 0
-63 246 311 0
-63 472 594 0
-62 -693 -741 0
-62 -113 967 0
-62 647 778 0
-62 699 -763 0
-61 308 309 0
-61 361 964 0
-61 755 825 0
-60 -245 -791 0
-60 -237 -722 0
-60 -123 -274 0
-60 185 445 0
-60 242 -745 0
-60 834 996 0
-59 -617 -933 0
-59 -317 -622 0
-59 -248 752 0
-59 -187 -503 0
-59 73 -87 0
-59 185 -754 0
-59 271 448 0
-59 334 789 0
-58 -728 924 0
-58 -182 -188 0
-58 163 -833 0
-58 482 -805 0
-57 -508 524 0
-57 -381 -824 0
-57 -256 597 0
-57 86 -950 0
-57 625 778 0
-57 698 844 0
-56 -678 -723 0
-56 -601 -683 0
-56 -438 -639 0
-56 -291 -610 0
-56 -61 -94 0
-56 153 491 0
-56 245 636 0
-56 413 738 0
-56 566 684 0
-56 889 -935 0
-55 -520 -825 0
-55 133 -587 0
-55 575 -868 0
-54 -590 -632 0
-54 -109 346 0
-54 135 213 0
-54 186 597 0
-54 275 -357 0
-54 467 837 0
-54 594 -905 0
-53 -155 -895 0
-53 -82 729 0
-53 236 562 0
-53 457 672 0
-52 -641 867 0
-52 -327 -958 0
-52 -262 389 0
-52 -177 -308 0
-52 252 591 0
-52 837 -893 0
-51 -754 994 0
-51 -665 -930 0
-51 280 -447 0
-51 301 333 0
-51 734 -931 0
-50 -308 -718 0
-50 -273 501 0
-50 -153 867 0
-50 -138 -867 0
-50 -76 82 0
-50 721 973 0
-50 813 -846 0
-50 814 817 0
-49 -105 344 0
-49 -81 847 0
-49 237 743 0
-49 241 332 0
-49 584 937 0
-48 -647 813 0
-48 -97 600 0
-48 195 -842 0
-48 313 869 0
-48 793 799 0
-47 -127 -280 0
-47 -90 -816 0
-47 345 839 0
-47 506 -665 0
-47 624 898 0
-46 -737 772 0
-46 -356 898 0
-46 -108 314 0
-45 -582 813 0
-45 -209 800 0
-45 -196 -918 0
-45 -62 -918 0
-45 -61 443 0
-45 190 -545 0
-45 240 798 0
-45 713 -964 0
-44 -879 891 0
-44 -377 577 0
-44 -240 868 0
-44 -203 -260 0
-44 164 -710 0
-44 549 -583 0
-44 601 668 0
-43 -545 -847 0
-43 -60 246 0
-43 88 -281 0
-43 142 -658 0
-43 269 543 0
-43 399 -420 0
-43 730 -772 0
-42 -694 -730 0
-42 100 411 0
-42 311 671 0
-42 367 609 0
-41 -792 -839 0
-41 -566 757 0
-41 -243 974 0
-41 -175 -567 0
-41 -42 830 0
-41 76 -870 0
-40 -228 -914 0
-40 -167 604 0
-40 105 -520 0
-40 569 989 0
-40 928 968 0
-39 -879 -967 0
-39 -430 760 0
-39 -347 864 0
-39 -160 -315 0
-39 127 957 0
-39 228 411 0
-39 570 -722 0
-38 -129 740 0
-38 168 720 0
-38 245 376 0
-38 287 -961 0
-37 -842 970 0
-37 -549 781 0
-37 -225 281 0
-37 45 -513 0
-37 144 -729 0
-37 162 602 0
-37 249 -765 0
-36 -333 -499 0
-36 -291 913 0
-36 583 937 0
-36 714 781 0
-35 -242 477 0
-35 138 554 0
-35 773 992 0
-34 -588 -991 0
-34 -407 411 0
-34 -71 292 0
-34 306 818 0
-34 373 -959 0
-34 401 -998 0
-34 417 806 0
-34 627 -640 0
-33 -705 926 0
-33 -210 262 0
-33 55 -476 0
-33 85 -524 0
-33 217 -904 0
-32 -856 895 0
-32 -692 -853 0
-32 -664 -933 0
-32 56 -708 0
-32 59 742 0
-32 90 -401 0
-32 466 974 0
-32 634 -916 0
-31 -202 685 0
-31 227 879 0
-31 289 -484 0
-31 424 922 0
-30 -225 -386 0
-30 -178 -797 0
-30 282 939 0
-29 -262 526 0
-29 -151 -920 0
-29 -53 86 0
-28 -614 -773 0
-28 -556 669 0
-28 -69 -715 0
-28 97 -863 0
-28 111 676 0
-27 -877 905 0
-27 -439 -708 0
-27 -135 -618 0
-27 -49 -263 0
-27 160 253 0
-27 284 -383 0
-27 611 -809 0
-27 724 -774 0
-26 -798 985 0
-26 -600 -719 0
-26 -355 -427 0
-26 -293 -295 0
-26 -212 -381 0
-26 -106 307 0
-26 307 -959 0
-26 675 -721 0
-25 -158 404 0
-25 40 -879 0
-25 60 600 0
-25 62 859 0
-25 284 -852 0
-24 -450 903 0
-24 -184 449 0
-24 46 -587 0
-24 125 144 0
-24 518 -923 0
-24 681 995 0
-24 810 -989 0
-23 -213 946 0
-23 78 198 0
-23 99 -352 0
-23 117 924 0
-23 336 -726 0
-23 523 -903 0
-23 644 863 0
-22 -651 769 0
-22 -289 -448 0
-22 -233 342 0
-22 -137 -823 0
-22 -32 258 0
-22 250 -991 0
-22 506 613 0
-22 538 -918 0
-21 -287 986 0
-21 -147 677 0
-21 520 891 0
-21 534 -917 0
-21 637 880 0
-20 -380 -958 0
-20 -151 -332 0
-20 -130 904 0
-20 114 257 0
-20 418 885 0
-19 -693 -800 0
-19 -481 -530 0
-19 -48 -119 0
-19 59 1000 0
-19 259 570 0
-19 493 905 0
-18 -408 672 0
-18 -399 518 0
-18 -84 427 0
-18 66 673 0
-18 380 -820 0
-17 -525 -655 0
-17 -51 377 0
-17 28 -155 0
-17 121 -842 0
-17 141 226 0
-17 145 -152 0
-17 369 -722 0
-17 619 -974 0
-16 -609 -719 0
-16 -149 194 0
-16 -67 -303 0
-16 -58 294 0
-16 400 -728 0
-16 502 -659 0
-16 610 -919 0
-16 774 -876 0
-15 -821 960 0
-15 -514 -854 0
-15 -470 -725 0
-15 -185 945 0
-15 -81 727 0
-14 -814 948 0
-14 -532 848 0
-14 -77 -429 0
-14 -49 -298 0
-14 33 -247 0
-14 56 -680 0
-14 57 -794 0
-14 114 220 0
-14 122 344 0
-14 143 -246 0
-14 434 -997 0
-13 -485 597 0
-13 -458 -944 0
-13 -413 -978 0
-13 -354 -785 0
-13 -231 838 0
-13 -35 -476 0
-13 297 -370 0
-13 476 519 0
-13 494 -577 0
-13 693 -932 0
-12 -159 -474 0
-12 -58 991 0
-12 261 -421 0
-12 341 716 0
-12 791 919 0
-11 -417 608 0
-11 -85 887 0
-11 -68 709 0
-11 -31 -670 0
-11 203 -480 0
-11 285 640 0
-11 782 807 0
-10 -450 683 0
-10 -259 572 0
-10 -128 -481 0
-10 331 -518 0
-10 526 792 0
-10 780 -824 0
-9 -807 -953 0
-9 -583 737 0
-9 -179 702 0
-9 322 -546 0
-8 -506 -592 0
-8 -351 540 0
-8 -192 -995 0
-8 407 687 0
-8 729 919 0
-7 -337 489 0
-7 165 -507 0
-7 314 -785 0
-7 888 -921 0
-6 -712 921 0
-6 221 336 0
-6 326 -774 0
-5 -313 -812 0
-5 101 874 0
-5 178 -236 0
-5 236 287 0
-5 309 701 0
-5 378 443 0
-5 454 824 0
-5 468 965 0
-5 805 -835 0
-4 -385 514 0
-4 -366 776 0
-4 -38 499 0
-4 94 136 0
-4 515 -873 0
-3 -811 902 0
-3 -364 581 0
-3 184 -230 0
-3 267 -834 0
-3 330 403 0
-3 605 930 0
-2 -808 -866 0
-2 -448 827 0
-2 -310 -328 0
-2 -279 553 0
-2 175 -447 0
-2 809 853 0
-1 -768 812 0
-1 176 -951 0
-1 592 -995 0
-1 842 -884 0
-1 859 861 0
1 -462 -888 0
1 -257 -308 0
1 170 -926 0
1 231 -749 0
1 260 -775 0
1 848 -858 0
2 -766 966 0
2 -501 -967 0
2 -150 -990 0
2 421 -452 0
2 549 -851 0
2 623 705 0
2 751 766 0
3 -300 325 0
3 -70 710 0
3 -33 -382 0
3 11 -807 0
3 118 421 0
3 198 -699 0
3 263 -945 0
4 -166 -412 0
4 157 -921 0
4 224 -469 0
4 227 -688 0
4 556 824 0
5 -857 984 0
5 -340 498 0
5 -302 393 0
5 -90 -743 0
5 10 438 0
5 72 818 0
5 218 -487 0
6 -456 -530 0
6 -245 -623 0
6 -121 575 0
7 -344 594 0
7 -114 337 0
7 32 -971 0
7 273 -480 0
8 -375 412 0
8 -210 250 0
8 58 -206 0
8 197 -788 0
8 270 -891 0
9 -368 -942 0
9 -240 279 0
9 -239 893 0
9 334 829 0
9 798 -806 0
10 -639 845 0
10 -137 482 0
10 401 540 0
10 833 851 0
11 -533 677 0
11 -274 -334 0
11 -229 -963 0
11 -125 645 0
11 86 153 0
11 215 567 0
12 -653 718 0
12 -321 -747 0
12 47 74 0
12 60 391 0
12 840 956 0
13 -745 782 0
13 -427 457 0
13 -369 -972 0
13 -324 -595 0
13 191 -598 0
13 362 947 0
13 389 -856 0
13 461 -790 0
13 825 -895 0
13 942 -972 0
14 -856 -885 0
14 -409 430 0
14 -289 -526 0
14 -276 399 0
14 -231 -841 0
14 -163 397 0
14 151 951 0
14 154 -511 0
14 198 956 0
14 439 -814 0
15 -327 519 0
15 -199 945 0
15 -26 -351 0
15 69 -697 0
15 76 371 0
16 -667 -905 0
16 -417 -928 0
16 -374 710 0
16 -264 -670 0
16 -234 924 0
16 -109 -966 0
16 -38 -650 0
16 68 -751 0
16 700 -724 0
17 -634 912 0
17 -470 -613 0
17 -297 955 0
17 -95 -141 0
17 148 -656 0
17 201 -674 0
17 237 632 0
17 250 -795 0
18 -303 -501 0
18 -235 -735 0
18 133 145 0
18 332 452 0
18 893 -953 0
19 -283 737 0
19 -192 -702 0
19 -62 442 0
19 260 270 0
19 357 502 0
19 491 776 0
20 -115 -447 0
20 96 161 0
20 580 708 0
20 790 -985 0
21 -212 594 0
21 -50 -746 0
21 480 -771 0
21 597 749 0
22 -423 -551 0
22 -236 -871 0
22 -187 -936 0
22 97 622 0
22 251 -513 0
22 500 -811 0
22 931 961 0
23 -672 692 0
23 -441 639 0
23 -163 791 0
23 155 686 0
23 392 453 0
23 858 935 0
24 -249 861 0
24 63 119 0
24 228 350 0
24 369 -717 0
24 428 -980 0
24 560 777 0
25 -415 -767 0
25 -413 -784 0
25 -372 883 0
25 -371 604 0
25 81 -171 0
25 85 117 0
26 -727 -818 0
26 -495 -999 0
26 -442 -517 0
26 44 352 0
26 412 -696 0
26 416 545 0
26 444 859 0
26 556 880 0
27 -816 925 0
27 -509 596 0
27 -147 857 0
27 -84 89 0
27 82 -743 0
27 163 -450 0
27 526 544 0
28 -497 514 0
28 -448 879 0
28 -329 -857 0
28 -159 -467 0
28 193 539 0
29 -912 936 0
29 -640 960 0
29 -553 870 0
29 -218 -946 0
30 -357 -867 0
30 -71 253 0
30 146 718 0
30 717 750 0
31 -824 921 0
31 -203 -329 0
31 -74 872 0
31 300 951 0
32 -634 764 0
32 -311 -406 0
32 -188 585 0
32 -114 533 0
32 191 -948 0
32 211 -853 0
32 326 -723 0
32 349 -407 0
32 377 -938 0
33 -202 -600 0
33 -92 960 0
33 588 -908 0
33 726 850 0
33 845 -854 0
34 -595 -987 0
34 -502 -525 0
34 -228 -353 0
34 -193 561 0
34 84 -429 0
34 274 -644 0
34 595 -614 0
35 -253 909 0
35 -36 -973 0
35 50 -719 0
35 477 -819 0
36 -640 -696 0
36 -337 -382 0
36 -327 432 0
36 243 -447 0
36 328 334 0
36 715 840 0
37 -481 573 0
37 -343 -707 0
37 -293 871 0
37 -207 -724 0
37 -100 -378 0
37 172 -984 0
37 390 622 0
38 -481 -790 0
38 -307 683 0
38 -102 534 0
38 84 860 0
38 605 -904 0
39 -921 975 0
39 -533 -649 0
39 -516 -711 0
39 -344 -497 0
39 -290 -479 0
39 -175 -483 0
39 114 -698 0
40 -485 -774 0
40 58 87 0
40 154 -318 0
40 208 863 0
41 -356 -739 0
41 -263 392 0
41 -241 -547 0
41 -92 -872 0
41 166 -624 0
41 526 -594 0
42 -555 948 0
42 -369 -446 0
42 -95 -594 0
42 595 718 0
42 664 848 0
43 -940 -966 0
43 -834 955 0
43 -807 853 0
43 -410 -962 0
43 -284 668 0
43 -158 -270 0
43 221 -634 0
44 -513 -874 0
44 -467 -719 0
44 47 899 0
44 79 -546 0
44 172 353 0
44 294 -923 0
45 -697 803 0
45 -619 837 0
45 -604 640 0
45 -303 810 0
45 -128 230 0
45 621 746 0
46 -291 -951 0
46 -78 150 0
46 78 -530 0
46 689 -794 0
47 -93 -274 0
47 73 592 0
47 98 -230 0
47 737 1000 0
48 -768 -857 0
48 -728 -918 0
48 -354 -735 0
48 -284 -602 0
48 521 -591 0
48 649 829 0
49 -635 945 0
49 -277 611 0
49 -224 -410 0
49 -127 234 0
49 -126 -227 0
49 243 382 0
50 -436 -925 0
50 -418 -521 0
50 -247 412 0
50 -238 822 0
50 -190 555 0
50 348 -994 0
50 396 707 0
50 551 -580 0
51 -317 -492 0
51 -273 -999 0
51 -141 884 0
51 217 677 0
51 409 -588 0
52 -164 -719 0
52 130 -851 0
52 375 945 0
52 425 -974 0
52 493 850 0
52 716 -972 0
53 108 -634 0
53 119 465 0
53 174 -357 0
53 244 954 0
53 680 747 0
54 -465 -680 0
54 -383 774 0
54 -377 -508 0
54 -126 959 0
54 64 -475 0
54 198 -232 0
54 330 -978 0
54 936 988 0
55 -217 -544 0
55 -72 367 0
56 -356 -537 0
56 95 -793 0
56 143 654 0
56 155 615 0
56 207 -948 0
56 277 -301 0
56 521 -693 0
56 564 751 0
56 733 -869 0
57 -74 -678 0
57 77 349 0
57 88 -174 0
57 149 -325 0
57 228 -537 0
57 556 752 0
58 -404 578 0
58 -153 -429 0
58 170 741 0
58 410 955 0
58 426 -629 0
59 -179 -885 0
59 94 842 0
59 158 -526 0
59 255 784 0
59 262 -596 0
59 430 -715 0
59 662 -904 0
60 -89 298 0
60 65 -319 0
60 266 585 0
60 292 520 0
60 798 934 0
61 -133 329 0
61 173 -987 0
61 274 -995 0
61 282 -516 0
61 529 588 0
62 -784 810 0
62 -675 -762 0
62 -622 -840 0
62 -579 -646 0
62 -514 557 0
62 -343 -722 0
63 -345 -908 0
63 -314 490 0
63 -288 361 0
63 -287 300 0
63 109 690 0
63 280 562 0
64 -510 -548 0
64 162 -232 0
64 328 -923 0
65 -563 -725 0
65 -211 -363 0
65 105 782 0
65 382 595 0
66 -586 -711 0
66 -403 -730 0
66 212 -953 0
66 268 -792 0
66 317 -521 0
67 -546 -582 0
67 -211 -835 0
67 -196 -311 0
67 -113 -900 0
67 -73 314 0
67 404 -949 0
67 587 -864 0
68 -605 -878 0
68 -350 -811 0
68 -344 685 0
68 -319 736 0
68 -302 -868 0
68 -239 -874 0
68 382 932 0
68 431 534 0
68 629 878 0
69 -432 -443 0
69 -146 -567 0
69 78 -464 0
69 372 398 0
69 549 -748 0
69 781 -884 0
70 -584 780 0
70 -572 -837 0
70 -333 787 0
70 -132 345 0
70 -73 -630 0
70 273 -370 0
71 -634 -827 0
71 -216 -546 0
71 215 367 0
71 232 316 0
71 276 -990 0
71 317 -853 0
72 -897 908 0
72 -203 267 0
72 -177 -578 0
72 826 867 0
73 -542 -566 0
73 -422 823 0
73 -324 717 0
73 -98 -562 0
73 254 -317 0
73 338 881 0
73 378 971 0
73 826 841 0
74 -644 -817 0
74 100 -908 0
74 413 -594 0
74 486 792 0
74 490 -658 0
74 508 -570 0
74 571 -877 0
74 947 989 0
75 -570 -592 0
75 -394 -656 0
75 -280 749 0
75 692 -830 0
76 -344 -482 0
76 -252 -935 0
76 -166 213 0
76 -121 772 0
76 91 655 0
76 195 944 0
77 -496 502 0
77 -271 486 0
77 187 -636 0
77 565 604 0
77 655 955 0
78 -664 692 0
78 -607 -920 0
78 -390 -895 0
78 -382 656 0
78 108 -806 0
78 530 626 0
79 -171 -375 0
79 227 869 0
79 303 375 0
79 359 481 0
80 -593 747 0
80 109 844 0
80 114 -767 0
80 941 -981 0
81 -220 718 0
81 -203 867 0
81 102 977 0
81 252 669 0
81 434 -665 0
81 482 955 0
81 556 -904 0
82 -137 -454 0
82 110 759 0
82 166 545 0
82 310 -789 0
82 487 938 0
82 509 -737 0
83 -484 -923 0
84 -742 -924 0
84 -411 -840 0
84 453 783 0
84 468 930 0
84 654 835 0
85 -946 976 0
85 -274 -310 0
85 -228 -557 0
85 -86 -146 0
85 134 -652 0
85 838 889 0
86 -185 -204 0
86 -108 -709 0
86 -93 -327 0
87 -483 -518 0
87 -445 708 0
87 211 -262 0
87 569 959 0
88 -449 -662 0
88 -340 -343 0
88 151 708 0
88 303 -432 0
88 448 -533 0
88 548 -553 0
88 628 886 0
89 -259 -854 0
89 -234 -260 0
89 -124 -410 0
89 426 -559 0
89 466 834 0
89 730 926 0
90 -891 -955 0
90 -682 802 0
90 -471 554 0
90 -234 -971 0
90 97 748 0
90 809 943 0
91 -244 318 0
91 278 344 0
91 509 -869 0
92 -236 806 0
92 -162 -927 0
92 -104 367 0
92 227 653 0
92 261 -668 0
92 279 435 0
92 599 742 0
93 -737 -936 0
93 -679 965 0
93 121 471 0
93 128 -876 0
93 407 -529 0
93 475 752 0
94 -493 -523 0
94 -375 822 0
94 -332 -845 0
94 -272 -955 0
94 -96 927 0
94 169 647 0
94 224 -347 0
94 658 749 0
94 684 931 0
95 -667 735 0
95 -133 723 0
95 490 -943 0
95 540 625 0
95 713 841 0
95 722 794 0
96 -110 -358 0
97 -620 -698 0
97 -174 -341 0
97 153 268 0
97 969 -984 0
98 -207 477 0
98 106 338 0
98 390 -704 0
98 408 -822 0
98 565 765 0
98 568 -827 0
99 191 -393 0
99 716 -949 0
100 -469 -844 0
100 -458 -970 0
100 188 342 0
100 543 620 0
100 785 920 0
101 -242 707 0
101 -205 301 0
101 107 902 0
101 148 982 0
101 408 -863 0
102 -731 -848 0
102 -199 260 0
102 163 -916 0
102 372 -650 0
102 600 -858 0
103 -657 978 0
103 -644 -943 0
103 -616 783 0
103 -603 -713 0
103 -527 909 0
103 -362 -365 0
103 -122 335 0
103 153 285 0
104 -525 634 0
104 -183 228 0
104 228 813 0
104 727 -765 0
104 794 937 0
104 839 975 0
105 -674 986 0
105 -664 -714 0
105 -345 -886 0
105 -332 -886 0
105 216 -955 0
105 270 -722 0
106 -366 -374 0
106 -339 399 0
106 -282 -354 0
106 126 -716 0
106 160 497 0
106 257 -320 0
107 -132 -900 0
108 -716 -906 0
108 -185 512 0
108 232 268 0
108 237 -621 0
109 -882 977 0
109 -384 -888 0
109 -143 633 0
109 145 802 0
109 356 839 0
109 588 -937 0
110 115 -637 0
110 211 -253 0
110 314 -535 0
110 347 725 0
110 436 -572 0
110 436 598 0
110 669 -958 0
111 -685 862 0
111 -338 -768 0
111 -229 236 0
111 202 535 0
111 221 -597 0
111 704 824 0
112 -737 -815 0
112 -541 -871 0
112 -201 654 0
112 146 -788 0
112 374 -544 0
112 528 604 0
113 -807 852 0
113 291 593 0
113 291 966 0
113 334 830 0
113 650 817 0
113 652 -962 0
114 -628 1000 0
114 -236 -382 0
114 196 451 0
114 567 918 0
114 603 816 0
115 -715 851 0
115 -461 -712 0
115 -273 -534 0
115 -144 -170 0
115 228 753 0
115 455 -757 0
115 534 645 0
115 562 768 0
115 757 978 0
116 -817 861 0
116 -618 823 0
116 213 -928 0
116 333 599 0
117 -670 -858 0
117 -492 807 0
117 -329 780 0
117 -268 406 0
118 -458 -555 0
118 -412 696 0
118 -393 556 0
118 -187 299 0
118 120 -735 0
118 134 -263 0
119 -495 975 0
119 -449 -500 0
119 -415 -588 0
119 -245 -471 0
119 234 -663 0
119 518 549 0
120 -749 -891 0
120 -569 -708 0
120 -461 684 0
120 -397 455 0
120 271 -674 0
120 384 -415 0
120 735 -753 0
121 -709 761 0
121 -594 -894 0
121 -220 448 0
121 -215 690 0
121 -200 -876 0
122 -326 -521 0
122 429 827 0
122 442 -733 0
123 -724 -945 0
123 -157 -210 0
123 428 -781 0
124 -374 978 0
124 343 751 0
124 584 912 0
125 -690 -895 0
125 -299 -920 0
125 -219 -589 0
125 -208 -288 0
125 186 455 0
126 -674 946 0
126 437 -509 0
126 472 523 0
127 -689 894 0
127 -498 555 0
127 -218 -714 0
127 154 253 0
127 386 -657 0
127 433 -985 0
128 -513 920 0
128 -304 517 0
128 202 -936 0
128 330 574 0
128 354 695 0
129 -542 969 0
129 -379 -896 0
129 -212 -339 0
129 744 -794 0
130 -596 -764 0
130 -545 -609 0
130 -346 -745 0
130 -311 -395 0
130 485 -818 0
131 -899 977 0
131 -676 -703 0
131 -622 -802 0
132 -360 -541 0
132 -295 528 0
132 -262 454 0
132 -235 848 0
132 572 830 0
133 172 871 0
133 299 470 0
133 826 -979 0
133 854 -944 0
134 -172 -241 0
134 402 -921 0
135 -749 -804 0
135 -691 -898 0
135 -488 -505 0
135 -482 -838 0
135 -440 735 0
135 181 452 0
135 187 -921 0
135 219 898 0
136 -721 800 0
136 -471 566 0
136 -426 592 0
137 -144 634 0
137 487 926 0
137 604 796 0
137 632 791 0
137 704 -807 0
137 725 -906 0
138 -573 -766 0
138 338 935 0
138 350 -665 0
138 516 885 0
138 626 -640 0
139 -698 871 0
139 -517 610 0
139 -437 725 0
139 279 -846 0
139 441 -552 0
140 -416 906 0
140 -378 -565 0
140 -179 877 0
140 -167 -885 0
140 213 473 0
140 329 -746 0
141 -705 -783 0
141 -663 -673 0
141 -297 841 0
141 -182 212 0
141 278 -712 0
141 555 906 0
141 928 -958 0
142 -645 -827 0
142 -597 -873 0
142 -253 519 0
142 -215 524 0
142 659 710 0
143 -807 -946 0
143 -599 -980 0
143 -374 667 0
143 -240 -847 0
143 377 719 0
144 -538 695 0
144 -207 -482 0
144 206 916 0
144 289 907 0
144 446 -885 0
144 849 887 0
145 -296 -854 0
146 -787 -927 0
146 227 -585 0
146 233 705 0
146 241 438 0
146 313 836 0
146 815 -913 0
147 -565 735 0
147 -542 -827 0
147 -212 -569 0
147 171 -256 0
147 593 -875 0
148 -757 823 0
148 -295 453 0
148 670 -728 0
149 -701 870 0
149 447 823 0
149 534 -879 0
149 627 -908 0
149 634 754 0
149 817 990 0
150 -662 -814 0
150 -211 -543 0
150 293 -883 0
150 347 973 0
150 583 -606 0
151 234 -319 0
151 401 -530 0
151 632 642 0
152 -761 -997 0
152 -554 702 0
152 -541 -647 0
152 547 -955 0
152 604 770 0
153 -203 -476 0
153 226 -616 0
153 339 439 0
153 498 526 0
154 -707 752 0
154 -289 -361 0
155 -619 963 0
155 -515 -754 0
155 -264 873 0
155 -180 243 0
156 -423 -749 0
156 -162 167 0
156 379 469 0
156 513 949 0
156 782 885 0
157 -867 -901 0
157 -449 647 0
157 -211 -365 0
157 -177 -690 0
157 355 804 0
158 -259 564 0
158 -167 659 0
158 160 322 0
158 271 -862 0
158 628 851 0
159 -699 -781 0
159 -406 -793 0
159 229 995 0
159 435 703 0
159 681 901 0
160 -653 -930 0
160 -558 -899 0
160 -499 -957 0
160 -477 -815 0
160 -326 940 0
160 -316 -676 0
160 263 -461 0
160 487 -676 0
161 -753 943 0
161 531 778 0
162 199 -411 0
162 390 -653 0
162 519 703 0
163 -379 670 0
163 427 -795 0
164 -602 954 0
164 -474 618 0
164 -215 -411 0
164 653 -798 0
165 -576 -773 0
165 -434 948 0
165 -186 -231 0
165 379 -404 0
165 437 775 0
166 -328 700 0
166 -284 449 0
166 -275 -975 0
166 -212 500 0
166 224 -651 0
166 487 -601 0
167 -358 689 0
167 372 456 0
167 579 -878 0
168 -482 -670 0
168 -223 691 0
168 -209 405 0
168 169 929 0
168 244 -248 0
169 -508 -845 0
169 222 263 0
169 511 553 0
169 842 994 0
170 -623 930 0
170 740 813 0
171 -475 827 0
171 -382 609 0
171 -356 664 0
171 229 -378 0
171 616 -902 0
172 -816 834 0
172 -740 901 0
172 -548 811 0
172 -240 -433 0
172 717 986 0
173 -266 -706 0
173 -201 456 0
173 415 523 0
173 490 -859 0
174 -541 833 0
174 -445 1000 0
174 -239 513 0
174 -178 246 0
174 267 927 0
174 952 -962 0
175 -718 -796 0
175 -713 -850 0
175 -674 -820 0
175 -182 232 0
176 -576 -832 0
176 -532 -618 0
176 -314 885 0
176 507 -940 0
176 579 933 0
176 708 -840 0
177 -321 329 0
177 -228 -739 0
177 239 -809 0
177 358 520 0
177 464 -704 0
177 522 919 0
178 -932 946 0
178 -469 518 0
178 -438 700 0
178 -412 -945 0
178 -287 801 0
178 873 913 0
179 -661 -711 0
179 -332 681 0
179 232 -872 0
179 234 -497 0
179 238 420 0
180 -635 -706 0
180 -317 986 0
180 238 -842 0
180 268 -918 0
180 618 926 0
180 772 -991 0
181 -284 -960 0
181 237 -861 0
181 239 769 0
181 379 921 0
181 485 -912 0
181 556 740 0
182 -197 514 0
182 286 363 0
182 892 -925 0
183 -519 -759 0
183 -282 -848 0
183 499 761 0
183 589 -965 0
184 -258 -431 0
184 -208 587 0
184 294 -708 0
184 592 896 0
185 -584 961 0
185 248 256 0
185 270 678 0
185 798 955 0
186 -657 696 0
186 -392 -585 0
186 329 864 0
186 709 -866 0
187 230 634 0
188 -759 894 0
188 -460 871 0
188 330 -767 0
188 535 -598 0
189 -436 941 0
189 -308 455 0
189 210 924 0
189 358 628 0
189 459 816 0
189 894 -997 0
190 -313 525 0
190 -265 -820 0
190 219 -713 0
190 495 -741 0
191 -255 273 0
191 265 -831 0
191 274 540 0
191 304 -377 0
192 235 -526 0
192 297 -589 0
192 422 474 0
192 792 -963 0
193 -620 952 0
193 -488 531 0
193 -374 -921 0
193 -278 550 0
193 314 927 0
193 400 -406 0
193 455 -544 0
194 -502 -781 0
194 -336 979 0
194 -236 832 0
194 573 -977 0
195 -526 976 0
195 -383 -816 0
195 -328 541 0
195 350 -631 0
196 -443 524 0
196 -423 702 0
196 -250 -545 0
196 224 741 0
197 -917 972 0
197 -435 438 0
197 -414 759 0
197 358 461 0
197 374 -493 0
198 -595 -695 0
198 -280 447 0
199 -290 -778 0
199 938 -982 0
200 258 -319 0
200 735 935 0
201 -586 691 0
201 -390 -916 0
201 -348 -886 0
201 432 629 0
201 850 -867 0
202 -552 -700 0
203 -557 982 0
203 -311 -776 0
203 469 -602 0
203 555 -821 0
203 704 -727 0
204 -387 914 0
204 247 846 0
204 272 -687 0
204 515 -559 0
205 -330 -993 0
205 -298 -801 0
205 487 -645 0
206 -829 900 0
206 444 -517 0
207 -734 -752 0
207 -273 447 0
207 -272 -792 0
207 241 -600 0
207 832 965 0
208 -774 -877 0
208 -632 -692 0
208 -614 -765 0
208 -439 591 0
208 -318 -385 0
208 -309 -841 0
209 -671 -999 0
209 -255 650 0
210 -319 -532 0
210 -263 -823 0
210 226 -834 0
210 437 -996 0
210 683 -869 0
211 -673 853 0
211 -602 -900 0
211 -550 881 0
211 252 473 0
211 438 460 0
212 -726 -949 0
212 -288 -907 0
212 394 -699 0
212 599 -889 0
213 -251 789 0
213 670 751 0
213 682 -711 0
214 -446 510 0
214 -217 988 0
214 855 982 0
215 -560 641 0
215 -363 -399 0
215 231 -360 0
215 664 854 0
215 802 -843 0
216 -452 750 0
216 -452 986 0
216 410 890 0
217 548 822 0
217 822 -872 0
218 -637 689 0
218 -591 932 0
218 -543 -582 0
218 -329 -368 0
218 -292 412 0
218 -224 -664 0
218 523 623 0
219 -511 -881 0
219 -304 383 0
219 447 959 0
219 715 -890 0
220 -800 992 0
220 -588 -747 0
220 -237 750 0
220 222 709 0
220 609 -975 0
220 638 -758 0
221 -696 -907 0
221 -350 -556 0
221 419 -548 0
222 -909 963 0
222 529 763 0
223 -529 825 0
223 263 529 0
223 351 -732 0
223 441 -888 0
223 446 -551 0
225 -586 -694 0
225 238 -329 0
225 392 652 0
225 429 895 0
225 438 -462 0
226 -853 950 0
226 -514 960 0
226 390 -478 0
226 674 -949 0
227 -610 -960 0
227 298 -526 0
228 -879 -930 0
229 -830 923 0
229 -823 -862 0
229 -773 885 0
229 -540 -936 0
229 337 382 0
229 538 -633 0
229 567 854 0
230 -764 844 0
230 -679 -977 0
230 -374 925 0
230 -317 926 0
230 424 -547 0
230 527 866 0
231 -661 819 0
231 308 835 0
231 428 925 0
232 -985 999 0
232 -641 752 0
233 261 -826 0
233 628 669 0
234 -828 -990 0
234 -790 995 0
234 -614 640 0
234 -446 -948 0
234 -411 644 0
234 -335 -869 0
234 260 413 0
234 820 967 0
235 -706 762 0
235 315 -830 0
235 894 -981 0
236 -253 -705 0
236 352 516 0
236 544 -583 0
236 729 789 0
237 436 642 0
237 818 -861 0
238 -475 -669 0
238 309 -512 0
238 424 -871 0
239 -805 995 0
239 -685 -928 0
239 -380 -753 0
239 361 380 0
239 443 -922 0
240 -441 775 0
240 -353 889 0
240 250 -610 0
240 315 -738 0
240 463 -827 0
240 494 -672 0
240 862 -930 0
241 -915 -931 0
242 -270 -610 0
242 546 -655 0
243 -566 726 0
243 -361 -930 0
243 667 -864 0
243 775 -948 0
244 -622 -764 0
244 -519 631 0
244 -342 -905 0
244 453 679 0
244 499 642 0
245 268 -443 0
245 276 -405 0
245 291 -885 0
245 395 -871 0
245 883 975 0
246 -660 934 0
246 -650 -662 0
246 -479 925 0
246 745 931 0
247 -604 958 0
247 -543 -579 0
247 -342 -602 0
247 -268 576 0
248 -602 808 0
248 -445 727 0
248 -377 -527 0
248 386 -444 0
248 522 648 0
248 687 -892 0
249 -569 726 0
250 -414 -521 0
251 -732 -837 0
251 -571 925 0
252 585 -819 0
253 -604 -863 0
253 -294 460 0
253 326 703 0
254 -461 -493 0
254 -424 -446 0
254 -278 473 0
255 -670 -740 0
255 -378 385 0
255 -344 374 0
255 411 -868 0
255 765 -964 0
255 894 -932 0
256 -477 -1000 0
256 -432 -646 0
256 -367 950 0
256 281 823 0
256 360 979 0
256 506 892 0
256 516 -951 0
257 -652 -893 0
257 294 -830 0
257 338 -395 0
257 348 887 0
257 445 -994 0
257 826 -980 0
258 -452 -601 0
258 -308 -906 0
258 311 -779 0
258 377 -726 0
259 -724 956 0
259 -429 -618 0
259 -376 757 0
259 -281 392 0
259 -268 -432 0
259 445 517 0
259 673 -839 0
260 -616 861 0
260 -466 523 0
260 858 883 0
261 -813 851 0
261 -534 -734 0
261 488 -918 0
261 608 -957 0
262 -407 -805 0
262 321 393 0
262 379 557 0
263 -376 519 0
263 -311 686 0
263 -290 -953 0
263 590 899 0
264 -553 -878 0
264 -528 -954 0
264 -515 907 0
264 -350 -984 0
264 410 613 0
265 -576 -728 0
265 288 723 0
265 333 934 0
265 792 799 0
266 -506 709 0
266 -362 -969 0
266 -326 356 0
266 500 643 0
266 634 -988 0
267 850 -961 0
268 -506 930 0
268 420 -636 0
269 -617 758 0
269 535 -692 0
270 -740 -944 0
270 275 -330 0
270 327 -369 0
271 -385 544 0
271 522 -986 0
272 -735 842 0
272 -480 -947 0
273 -839 -903 0
273 -725 -892 0
273 -678 -687 0
273 -591 872 0
273 -355 409 0
273 442 -491 0
273 654 896 0
274 -606 938 0
274 321 585 0
274 395 652 0
274 396 -753 0
275 353 911 0
275 577 -956 0
276 -631 635 0
276 603 -672 0
276 763 -980 0
277 -457 556 0
277 -292 900 0
277 349 -459 0
278 -595 -909 0
278 280 734 0
278 288 763 0
279 475 -512 0
280 -305 419 0
280 281 289 0
281 427 984 0
281 608 -896 0
282 -629 -919 0
282 289 290 0
283 -488 -763 0
284 -532 -540 0
284 386 898 0
284 490 513 0
284 527 619 0
285 -371 -573 0
285 -289 -305 0
285 292 -923 0
286 -653 -945 0
286 306 -659 0
286 542 841 0
287 -798 -948 0
287 303 687 0
288 -892 937 0
288 -354 532 0
288 -325 -574 0
289 -386 608 0
289 -299 757 0
289 682 -798 0
290 -616 934 0
290 -334 -456 0
290 308 843 0
290 450 825 0
290 618 915 0
291 324 541 0
291 599 -861 0
291 685 -764 0
293 390 -780 0
293 541 -963 0
295 -349 913 0
295 311 512 0
295 357 -986 0
295 504 907 0
295 787 932 0
296 -769 781 0
296 -358 365 0
297 -581 -832 0
297 372 583 0
297 400 -426 0
297 722 970 0
297 775 -803 0
298 -777 972 0
298 -406 -457 0
298 -381 -882 0
298 548 -564 0
298 641 980 0
299 -459 829 0
299 315 387 0
300 -501 -554 0
300 318 -679 0
301 -727 -993 0
301 -428 936 0
301 613 633 0
302 -562 -779 0
302 -533 -540 0
302 -389 895 0
302 601 -929 0
303 -784 988 0
303 696 831 0
304 -455 940 0
304 -312 966 0
304 644 -780 0
305 560 870 0
306 -729 787 0
306 -436 759 0
306 -419 514 0
306 -418 -863 0
306 364 897 0
306 371 -946 0
307 -662 -684 0
307 -402 933 0
307 334 -600 0
307 779 994 0
308 -753 943 0
308 -466 630 0
308 -444 -775 0
308 -391 -699 0
308 612 -745 0
309 -559 918 0
309 351 832 0
309 720 813 0
309 721 773 0
309 785 -871 0
310 345 964 0
310 359 378 0
310 637 -825 0
311 -555 953 0
311 -351 835 0
311 395 683 0
312 -818 914 0
312 -445 -782 0
312 -401 -712 0
312 650 -925 0
312 656 -741 0
312 782 -987 0
313 -445 -564 0
313 375 511 0
313 502 809 0
314 -760 -817 0
315 -448 860 0
315 -372 753 0
316 534 -757 0
316 585 -906 0
317 -564 -763 0
317 -409 424 0
317 762 950 0
318 -673 -979 0
318 -648 -654 0
318 -551 -778 0
319 -525 770 0
319 -381 526 0
319 427 -452 0
319 525 -846 0
319 542 795 0
319 624 -988 0
320 -757 -860 0
320 -453 -976 0
320 -341 616 0
320 615 -747 0
321 -583 917 0
321 -476 -534 0
321 -344 741 0
322 -487 -507 0
323 344 -906 0
323 391 -869 0
324 -624 794 0
324 -373 458 0
324 386 917 0
324 446 -487 0
325 349 -937 0
325 534 553 0
325 843 850 0
326 -658 -776 0
326 -444 -697 0
326 415 568 0
326 548 -774 0
327 -512 979 0
328 -824 869 0
328 -485 -527 0
328 -395 -404 0
328 869 900 0
329 444 -730 0
329 596 -908 0
329 763 979 0
331 -632 826 0
331 593 790 0
332 -809 926 0
332 -690 -932 0
332 -334 571 0
332 528 -837 0
332 538 539 0
332 547 561 0
332 568 760 0
333 -350 401 0
334 -436 -778 0
334 -401 -419 0
334 495 971 0
335 -768 -889 0
335 -508 792 0
335 -484 797 0
335 535 596 0
335 559 917 0
335 618 -741 0
336 -671 916 0
336 -656 -899 0
337 -832 -869 0
337 -674 -829 0
337 -392 629 0
337 394 -979 0
337 417 -761 0
337 526 -827 0
338 -542 -621 0
338 485 -964 0
339 -968 -991 0
339 -436 769 0
339 521 946 0
339 842 943 0
340 -703 726 0
341 612 912 0
341 735 909 0
342 -538 939 0
343 -824 -927 0
343 -474 -659 0
344 488 784 0
344 904 -917 0
345 -508 -596 0
345 812 -919 0
345 818 911 0
346 -427 685 0
346 -349 -484 0
346 376 643 0
347 -893 952 0
347 -408 -805 0
347 569 960 0
347 574 640 0
348 -715 -867 0
348 -425 -658 0
348 482 -969 0
348 639 712 0
349 370 747 0
349 391 821 0
349 822 -925 0
350 -590 737 0
351 814 912 0
352 -707 -841 0
352 409 -477 0
352 423 -685 0
352 431 -941 0
353 -794 934 0
353 -628 -629 0
353 -434 -552 0
354 -865 -918 0
354 -544 -852 0
354 -355 -695 0
354 664 814 0
354 870 -922 0
355 -541 931 0
355 446 -682 0
356 -659 -994 0
356 -607 -981 0
356 -531 -831 0
356 732 -804 0
357 718 890 0
357 719 -942 0
358 -413 -650 0
359 426 -528 0
359 972 -974 0
360 -727 -797 0
360 -626 -854 0
360 -577 -660 0
360 -391 974 0
361 -473 -477 0
361 600 625 0
361 653 -872 0
361 674 998 0
361 756 -952 0
362 -596 -937 0
362 462 855 0
362 496 557 0
362 515 913 0
362 623 776 0
363 -734 -971 0
363 -522 646 0
363 -460 555 0
363 451 855 0
364 -595 -732 0
364 -476 978 0
365 -663 -846 0
365 -414 -865 0
365 449 -765 0
365 701 883 0
366 -844 917 0
366 558 908 0
366 714 772 0
367 -635 666 0
367 -510 -513 0
367 -432 -645 0
368 -922 -942 0
368 507 -667 0
369 -907 936 0
369 -803 -810 0
369 498 -889 0
369 652 -879 0
369 753 782 0
370 -644 676 0
370 652 653 0
371 -926 -933 0
371 -713 -1000 0
371 -576 -936 0
371 -563 -897 0
371 -512 -1000 0
371 -424 970 0
371 -391 -853 0
371 465 -545 0
372 -479 -768 0
372 557 774 0
373 -494 -682 0
373 -447 903 0
373 -439 892 0
373 525 -918 0
373 578 876 0
374 488 -870 0
374 540 747 0
375 -392 839 0
375 451 -937 0
376 -472 728 0
376 651 711 0
376 764 -862 0
376 789 936 0
377 -548 602 0
377 516 -916 0
377 745 -770 0
377 878 879 0
378 -843 893 0
378 -517 941 0
378 -493 976 0
378 510 -837 0
378 517 791 0
379 409 555 0
380 -469 714 0
380 902 -920 0
381 -723 -789 0
381 427 546 0
381 633 800 0
381 762 -841 0
382 -604 971 0
382 -419 -519 0
382 467 866 0
383 -583 -789 0
383 -425 952 0
383 760 830 0
383 885 -926 0
384 -849 898 0
384 -457 800 0
384 680 -746 0
385 -843 919 0
385 -753 -909 0
385 660 768 0
385 666 869 0
386 -645 982 0
386 -636 -718 0
386 953 983 0
387 -680 857 0
387 655 715 0
388 531 -805 0
388 620 980 0
389 617 693 0
391 -612 631 0
392 587 -831 0
393 -796 -995 0
393 -520 878 0
393 -421 879 0
393 481 -703 0
393 620 940 0
395 -418 467 0
395 949 -952 0
396 -890 -944 0
396 -727 -905 0
397 -800 922 0
397 -613 -770 0
397 448 -496 0
397 562 -980 0
397 701 708 0
397 788 -789 0
398 -791 -989 0
398 422 -776 0
399 651 -961 0
399 882 901 0
400 -570 -968 0
400 -458 -745 0
401 -534 680 0
401 750 -772 0
402 452 615 0
402 580 807 0
403 -768 891 0
403 -531 -640 0
403 473 610 0
404 -924 -968 0
404 -712 -762 0
404 -495 -721 0
405 411 -951 0
405 803 -813 0
406 -964 994 0
406 -524 -677 0
406 457 583 0
406 536 621 0
406 580 -763 0
406 657 817 0
407 705 867 0
408 -586 -986 0
408 -523 -610 0
408 451 583 0
408 900 952 0
410 -731 802 0
410 -489 989 0
410 595 680 0
410 921 969 0
411 -580 705 0
411 424 542 0
411 867 975 0
412 691 936 0
413 463 505 0
413 530 -799 0
413 563 566 0
414 525 -797 0
415 474 519 0
415 546 990 0
416 -572 711 0
416 484 -797 0
418 -696 872 0
418 -562 665 0
418 -459 -502 0
419 -739 -785 0
419 -679 -746 0
419 573 -635 0
419 707 -714 0
420 641 -832 0
421 -687 723 0
422 -538 -555 0
423 509 -574 0
424 -602 -824 0
424 -438 935 0
425 -746 -780 0
425 -686 -723 0
425 563 -833 0
426 442 602 0
427 -838 937 0
428 -685 -877 0
428 -457 -813 0
429 -585 648 0
429 -526 572 0
429 -441 -681 0
429 -437 984 0
430 -474 727 0
430 669 -928 0
431 -884 -981 0
431 518 -709 0
431 524 -908 0
432 -621 -900 0
432 -561 968 0
432 -495 780 0
433 -683 942 0
433 -680 892 0
433 -475 -941 0
434 -691 929 0
434 -507 -512 0
434 -495 870 0
434 625 -886 0
435 -511 594 0
436 -596 -694 0
437 613 -894 0
437 649 793 0
438 -729 -974 0
438 -674 754 0
438 -481 487 0
438 692 697 0
439 494 636 0
439 559 923 0
439 714 -802 0
440 -469 -825 0
440 527 697 0
441 -673 -988 0
441 -592 -920 0
441 874 -930 0
442 -705 865 0
442 -481 801 0
443 635 -975 0
443 750 820 0
444 482 -797 0
445 -723 -843 0
445 651 730 0
446 -817 -990 0
446 -451 -769 0
446 453 -893 0
446 613 -694 0
447 -718 -860 0
447 -532 792 0
448 -764 865 0
448 -647 876 0
448 -497 -626 0
449 -652 807 0
449 516 -730 0
450 -475 706 0
450 -455 -994 0
451 -766 962 0
451 494 -849 0
452 647 -883 0
454 -774 879 0
454 -482 -607 0
454 479 -569 0
454 609 -852 0
455 -499 991 0
456 -489 -856 0
456 746 958 0
457 -765 857 0
458 -598 768 0
458 797 981 0
459 620 -964 0
460 -506 564 0
460 505 -887 0
461 -473 479 0
461 558 609 0
461 849 -982 0
462 -558 947 0
462 -543 681 0
463 -580 -876 0
465 546 706 0
466 -731 792 0
466 -616 871 0
466 -487 576 0
466 534 976 0
466 602 -740 0
467 805 -826 0
467 958 975 0
469 -739 954 0
469 -705 903 0
469 504 859 0
469 552 611 0
469 649 -684 0
470 566 -996 0
471 -807 -914 0
471 -628 893 0
471 -603 682 0
471 821 874 0
472 -475 667 0
472 669 -832 0
472 703 -851 0
474 524 956 0
475 -830 -984 0
475 684 997 0
475 725 745 0
476 -481 -616 0
476 673 -955 0
477 -978 -982 0
477 -615 755 0
478 -635 865 0
478 -606 748 0
478 596 -848 0
478 635 -701 0
479 -639 -973 0
479 -639 912 0
479 561 845 0
480 -498 769 0
480 552 918 0
480 811 824 0
480 839 -980 0
481 -815 -887 0
481 -490 -628 0
481 -482 -921 0
481 614 -750 0
482 -777 -960 0
482 -660 704 0
483 632 -668 0
484 -680 -845 0
484 538 815 0
484 709 -902 0
485 -594 -682 0
485 513 997 0
486 -805 -879 0
487 494 -721 0
488 842 -919 0
489 -884 957 0
489 -822 -977 0
489 -631 -686 0
489 -574 856 0
490 -583 932 0
492 538 982 0
492 776 918 0
493 -561 834 0
493 576 810 0
496 -891 -900 0
496 -824 920 0
497 -689 -893 0
497 -567 817 0
498 624 -986 0
498 696 -860 0
499 -866 970 0
499 -542 921 0
499 832 948 0
499 841 -858 0
500 537 -594 0
501 -534 -677 0
502 -788 987 0
502 641 -974 0
502 852 930 0
505 -823 -989 0
506 -613 615 0
506 -538 652 0
507 -702 -786 0
507 620 -660 0
508 -750 827 0
508 -529 -821 0
508 542 -958 0
510 -839 906 0
510 -535 582 0
511 -681 -792 0
511 -512 722 0
512 -793 999 0
512 -590 591 0
512 -524 577 0
512 544 674 0
513 -822 -945 0
513 -656 -894 0
513 549 -717 0
515 606 828 0
517 -771 917 0
517 -725 -766 0
517 -542 693 0
520 -597 -973 0
520 -595 980 0
521 -568 672 0
521 570 -932 0
524 872 912 0
526 685 823 0
526 727 806 0
528 708 -984 0
529 754 919 0
529 768 976 0
530 619 -960 0
532 -936 -954 0
532 -717 877 0
533 664 799 0
535 -829 961 0
536 -940 -997 0
536 695 718 0
537 -759 -965 0
537 672 -962 0
538 623 986 0
539 662 -708 0
540 817 960 0
541 -840 -942 0
542 -776 -950 0
542 861 944 0
542 887 963 0
543 -786 -861 0
543 -709 -765 0
543 -650 794 0
543 606 952 0
543 610 794 0
543 843 -986 0
544 -553 -618 0
545 -789 902 0
545 -619 839 0
545 554 895 0
546 816 822 0
548 -686 807 0
548 -579 -597 0
550 -592 731 0
550 754 -893 0
551 726 -946 0
552 -668 807 0
552 571 936 0
552 666 -680 0
553 -849 -993 0
553 -807 855 0
554 598 775 0
558 -663 -683 0
558 807 -856 0
559 -667 763 0
559 674 943 0
559 705 815 0
561 810 -906 0
562 -815 -913 0
564 -600 785 0
564 658 856 0
565 -706 -757 0
565 -586 745 0
566 -621 969 0
566 584 774 0
567 -802 -911 0
567 -708 728 0
568 -790 -935 0
568 -569 779 0
568 960 985 0
569 752 -770 0
571 652 -741 0
572 -768 793 0
573 678 869 0
573 816 -920 0
575 665 -951 0
576 -658 739 0
577 666 -783 0
578 -622 -734 0
579 -970 996 0
579 -844 -975 0
580 -593 658 0
580 589 -982 0
580 693 744 0
584 -647 -652 0
586 -703 897 0
586 595 612 0
587 -745 758 0
587 855 886 0
589 601 -791 0
589 861 -985 0
590 -687 -701 0
591 -770 -920 0
591 -749 798 0
594 610 -958 0
598 721 727 0
600 -816 -931 0
600 -758 -902 0
601 -729 830 0
601 -651 997 0
601 -638 647 0
604 717 -933 0
606 -787 -866 0
607 -609 -658 0
607 609 -961 0
610 691 -786 0
612 687 913 0
614 -653 -858 0
615 804 808 0
616 738 866 0
616 903 997 0
617 790 918 0
618 815 995 0
621 -947 -976 0
622 -713 -746 0
622 747 768 0
622 797 932 0
623 791 -816 0
624 635 985 0
624 861 -956 0
625 696 -820 0
627 833 866 0
628 -737 -740 0
628 -719 -789 0
630 777 -911 0
631 711 749 0
631 876 -1000 0
631 942 -995 0
636 751 918 0
638 -698 -928 0
639 695 -940 0
640 -685 -867 0
641 -810 839 0
644 -794 904 0
644 686 -725 0
644 721 789 0
645 -726 -894 0
646 -669 893 0
649 -666 -878 0
649 670 787 0
650 -740 870 0
650 705 -861 0
650 741 991 0
651 854 943 0
652 749 916 0
653 -800 993 0
654 847 -972 0
655 934 996 0
656 -848 971 0
656 663 -664 0
657 -867 959 0
658 951 989 0
659 -923 959 0
659 672 759 0
660 837 942 0
661 777 -835 0
662 673 871 0
662 786 911 0
663 -893 918 0
664 753 868 0
668 690 -883 0
671 950 -954 0
674 -750 935 0
677 778 892 0
678 -726 972 0
678 759 -993 0
680 -809 -938 0
681 -684 -808 0
682 819 -969 0
683 889 -903 0
686 -800 -864 0
687 890 -912 0
689 964 993 0
690 -807 -942 0
690 -731 -855 0
690 723 922 0
690 862 989 0
694 -701 761 0
694 714 -810 0
696 754 -916 0
696 805 866 0
697 -775 884 0
699 -759 830 0
699 -718 765 0
700 715 -973 0
707 794 -994 0
710 -779 892 0
711 743 954 0
712 -717 -742 0
713 -793 -861 0
713 784 -866 0
715 -763 907 0
715 779 804 0
717 -880 -897 0
719 -727 -898 0
720 -815 926 0
720 845 -976 0
720 935 -977 0
722 848 -850 0
723 -744 -797 0
723 793 803 0
723 840 -944 0
732 -758 -956 0
733 797 940 0
733 923 -969 0
734 754 987 0
740 -836 875 0
740 769 807 0
742 -802 -911 0
743 796 -805 0
744 -750 -794 0
745 -970 -998 0
746 804 870 0
754 -880 -926 0
754 -782 824 0
755 -783 994 0
756 877 944 0
760 -762 825 0
766 -806 972 0
767 -868 -931 0
767 795 -931 0
772 -932 -959 0
773 -781 944 0
790 -821 991 0
805 -881 953 0
809 -879 -885 0
809 829 858 0
814 -846 -971 0
816 894 962 0
819 863 912 0
823 -945 998 0
827 -890 -903 0
827 866 -943 0
829 860 998 0
832 862 918 0
837 -877 956 0
838 840 -978 0
840 872 888 0
841 858 966 0
855 897 910 0
878 -961 -978 0
886 -935 947 0
896 986 -992 0
898 899 -999 0
913 -960 -976 0
953 -956 -969 0
954 -964 -983 0
